15858.0	52.0
14910.0	50.0
14421.0	48.0
13734.0	34.0
13756.0	40.0
10057.0	22.0
9905.0	18.0
9935.0	19.0
10001.0	21.0
10137.0	23.0
10655.0	30.0
10496.0	28.0
10511.0	29.0
10190.0	26.0
10486.0	27.0
10886.0	31.0
